Minimize
 obj: 0 X_0_1
Subject To
 out_0:
  + 1 X_0_1 + 1 X_0_2 + 1 X_0_3 + 1 X_0_4 + 1 X_0_5 + 1 X_0_6 + 1 X_0_7 + 1 X_0_8
  + 1 X_0_9
  = 1
 in_0:
  + 1 X_1_0 + 1 X_2_0 + 1 X_3_0 + 1 X_4_0 + 1 X_5_0 + 1 X_6_0 + 1 X_7_0 + 1 X_8_0
  + 1 X_9_0
  = 1
 out_1:
  + 1 X_1_0 + 1 X_1_2 + 1 X_1_3 + 1 X_1_4 + 1 X_1_5 + 1 X_1_6 + 1 X_1_7 + 1 X_1_8
  + 1 X_1_9
  = 1
 in_1:
  + 1 X_0_1 + 1 X_2_1 + 1 X_3_1 + 1 X_4_1 + 1 X_5_1 + 1 X_6_1 + 1 X_7_1 + 1 X_8_1
  + 1 X_9_1
  = 1
 out_2:
  + 1 X_2_0 + 1 X_2_1 + 1 X_2_3 + 1 X_2_4 + 1 X_2_5 + 1 X_2_6 + 1 X_2_7 + 1 X_2_8
  + 1 X_2_9
  = 1
 in_2:
  + 1 X_0_2 + 1 X_1_2 + 1 X_3_2 + 1 X_4_2 + 1 X_5_2 + 1 X_6_2 + 1 X_7_2 + 1 X_8_2
  + 1 X_9_2
  = 1
 out_3:
  + 1 X_3_0 + 1 X_3_1 + 1 X_3_2 + 1 X_3_4 + 1 X_3_5 + 1 X_3_6 + 1 X_3_7 + 1 X_3_8
  + 1 X_3_9
  = 1
 in_3:
  + 1 X_0_3 + 1 X_1_3 + 1 X_2_3 + 1 X_4_3 + 1 X_5_3 + 1 X_6_3 + 1 X_7_3 + 1 X_8_3
  + 1 X_9_3
  = 1
 out_4:
  + 1 X_4_0 + 1 X_4_1 + 1 X_4_2 + 1 X_4_3 + 1 X_4_5 + 1 X_4_6 + 1 X_4_7 + 1 X_4_8
  + 1 X_4_9
  = 1
 in_4:
  + 1 X_0_4 + 1 X_1_4 + 1 X_2_4 + 1 X_3_4 + 1 X_5_4 + 1 X_6_4 + 1 X_7_4 + 1 X_8_4
  + 1 X_9_4
  = 1
 out_5:
  + 1 X_5_0 + 1 X_5_1 + 1 X_5_2 + 1 X_5_3 + 1 X_5_4 + 1 X_5_6 + 1 X_5_7 + 1 X_5_8
  + 1 X_5_9
  = 1
 in_5:
  + 1 X_0_5 + 1 X_1_5 + 1 X_2_5 + 1 X_3_5 + 1 X_4_5 + 1 X_6_5 + 1 X_7_5 + 1 X_8_5
  + 1 X_9_5
  = 1
 out_6:
  + 1 X_6_0 + 1 X_6_1 + 1 X_6_2 + 1 X_6_3 + 1 X_6_4 + 1 X_6_5 + 1 X_6_7 + 1 X_6_8
  + 1 X_6_9
  = 1
 in_6:
  + 1 X_0_6 + 1 X_1_6 + 1 X_2_6 + 1 X_3_6 + 1 X_4_6 + 1 X_5_6 + 1 X_7_6 + 1 X_8_6
  + 1 X_9_6
  = 1
 out_7:
  + 1 X_7_0 + 1 X_7_1 + 1 X_7_2 + 1 X_7_3 + 1 X_7_4 + 1 X_7_5 + 1 X_7_6 + 1 X_7_8
  + 1 X_7_9
  = 1
 in_7:
  + 1 X_0_7 + 1 X_1_7 + 1 X_2_7 + 1 X_3_7 + 1 X_4_7 + 1 X_5_7 + 1 X_6_7 + 1 X_8_7
  + 1 X_9_7
  = 1
 out_8:
  + 1 X_8_0 + 1 X_8_1 + 1 X_8_2 + 1 X_8_3 + 1 X_8_4 + 1 X_8_5 + 1 X_8_6 + 1 X_8_7
  + 1 X_8_9
  = 1
 in_8:
  + 1 X_0_8 + 1 X_1_8 + 1 X_2_8 + 1 X_3_8 + 1 X_4_8 + 1 X_5_8 + 1 X_6_8 + 1 X_7_8
  + 1 X_9_8
  = 1
 out_9:
  + 1 X_9_0 + 1 X_9_1 + 1 X_9_2 + 1 X_9_3 + 1 X_9_4 + 1 X_9_5 + 1 X_9_6 + 1 X_9_7
  + 1 X_9_8
  = 1
 in_9:
  + 1 X_0_9 + 1 X_1_9 + 1 X_2_9 + 1 X_3_9 + 1 X_4_9 + 1 X_5_9 + 1 X_6_9 + 1 X_7_9
  + 1 X_8_9
  = 1
 mtz_1_2:
  + 1 U1 - 1 U2 + 9 X_1_2
  <= 8
 mtz_1_3:
  + 1 U1 - 1 U3 + 9 X_1_3
  <= 8
 mtz_1_4:
  + 1 U1 - 1 U4 + 9 X_1_4
  <= 8
 mtz_1_5:
  + 1 U1 - 1 U5 + 9 X_1_5
  <= 8
 mtz_1_6:
  + 1 U1 - 1 U6 + 9 X_1_6
  <= 8
 mtz_1_7:
  + 1 U1 - 1 U7 + 9 X_1_7
  <= 8
 mtz_1_8:
  + 1 U1 - 1 U8 + 9 X_1_8
  <= 8
 mtz_1_9:
  + 1 U1 - 1 U9 + 9 X_1_9
  <= 8
 mtz_2_1:
  + 1 U2 - 1 U1 + 9 X_2_1
  <= 8
 mtz_2_3:
  + 1 U2 - 1 U3 + 9 X_2_3
  <= 8
 mtz_2_4:
  + 1 U2 - 1 U4 + 9 X_2_4
  <= 8
 mtz_2_5:
  + 1 U2 - 1 U5 + 9 X_2_5
  <= 8
 mtz_2_6:
  + 1 U2 - 1 U6 + 9 X_2_6
  <= 8
 mtz_2_7:
  + 1 U2 - 1 U7 + 9 X_2_7
  <= 8
 mtz_2_8:
  + 1 U2 - 1 U8 + 9 X_2_8
  <= 8
 mtz_2_9:
  + 1 U2 - 1 U9 + 9 X_2_9
  <= 8
 mtz_3_1:
  + 1 U3 - 1 U1 + 9 X_3_1
  <= 8
 mtz_3_2:
  + 1 U3 - 1 U2 + 9 X_3_2
  <= 8
 mtz_3_4:
  + 1 U3 - 1 U4 + 9 X_3_4
  <= 8
 mtz_3_5:
  + 1 U3 - 1 U5 + 9 X_3_5
  <= 8
 mtz_3_6:
  + 1 U3 - 1 U6 + 9 X_3_6
  <= 8
 mtz_3_7:
  + 1 U3 - 1 U7 + 9 X_3_7
  <= 8
 mtz_3_8:
  + 1 U3 - 1 U8 + 9 X_3_8
  <= 8
 mtz_3_9:
  + 1 U3 - 1 U9 + 9 X_3_9
  <= 8
 mtz_4_1:
  + 1 U4 - 1 U1 + 9 X_4_1
  <= 8
 mtz_4_2:
  + 1 U4 - 1 U2 + 9 X_4_2
  <= 8
 mtz_4_3:
  + 1 U4 - 1 U3 + 9 X_4_3
  <= 8
 mtz_4_5:
  + 1 U4 - 1 U5 + 9 X_4_5
  <= 8
 mtz_4_6:
  + 1 U4 - 1 U6 + 9 X_4_6
  <= 8
 mtz_4_7:
  + 1 U4 - 1 U7 + 9 X_4_7
  <= 8
 mtz_4_8:
  + 1 U4 - 1 U8 + 9 X_4_8
  <= 8
 mtz_4_9:
  + 1 U4 - 1 U9 + 9 X_4_9
  <= 8
 mtz_5_1:
  + 1 U5 - 1 U1 + 9 X_5_1
  <= 8
 mtz_5_2:
  + 1 U5 - 1 U2 + 9 X_5_2
  <= 8
 mtz_5_3:
  + 1 U5 - 1 U3 + 9 X_5_3
  <= 8
 mtz_5_4:
  + 1 U5 - 1 U4 + 9 X_5_4
  <= 8
 mtz_5_6:
  + 1 U5 - 1 U6 + 9 X_5_6
  <= 8
 mtz_5_7:
  + 1 U5 - 1 U7 + 9 X_5_7
  <= 8
 mtz_5_8:
  + 1 U5 - 1 U8 + 9 X_5_8
  <= 8
 mtz_5_9:
  + 1 U5 - 1 U9 + 9 X_5_9
  <= 8
 mtz_6_1:
  + 1 U6 - 1 U1 + 9 X_6_1
  <= 8
 mtz_6_2:
  + 1 U6 - 1 U2 + 9 X_6_2
  <= 8
 mtz_6_3:
  + 1 U6 - 1 U3 + 9 X_6_3
  <= 8
 mtz_6_4:
  + 1 U6 - 1 U4 + 9 X_6_4
  <= 8
 mtz_6_5:
  + 1 U6 - 1 U5 + 9 X_6_5
  <= 8
 mtz_6_7:
  + 1 U6 - 1 U7 + 9 X_6_7
  <= 8
 mtz_6_8:
  + 1 U6 - 1 U8 + 9 X_6_8
  <= 8
 mtz_6_9:
  + 1 U6 - 1 U9 + 9 X_6_9
  <= 8
 mtz_7_1:
  + 1 U7 - 1 U1 + 9 X_7_1
  <= 8
 mtz_7_2:
  + 1 U7 - 1 U2 + 9 X_7_2
  <= 8
 mtz_7_3:
  + 1 U7 - 1 U3 + 9 X_7_3
  <= 8
 mtz_7_4:
  + 1 U7 - 1 U4 + 9 X_7_4
  <= 8
 mtz_7_5:
  + 1 U7 - 1 U5 + 9 X_7_5
  <= 8
 mtz_7_6:
  + 1 U7 - 1 U6 + 9 X_7_6
  <= 8
 mtz_7_8:
  + 1 U7 - 1 U8 + 9 X_7_8
  <= 8
 mtz_7_9:
  + 1 U7 - 1 U9 + 9 X_7_9
  <= 8
 mtz_8_1:
  + 1 U8 - 1 U1 + 9 X_8_1
  <= 8
 mtz_8_2:
  + 1 U8 - 1 U2 + 9 X_8_2
  <= 8
 mtz_8_3:
  + 1 U8 - 1 U3 + 9 X_8_3
  <= 8
 mtz_8_4:
  + 1 U8 - 1 U4 + 9 X_8_4
  <= 8
 mtz_8_5:
  + 1 U8 - 1 U5 + 9 X_8_5
  <= 8
 mtz_8_6:
  + 1 U8 - 1 U6 + 9 X_8_6
  <= 8
 mtz_8_7:
  + 1 U8 - 1 U7 + 9 X_8_7
  <= 8
 mtz_8_9:
  + 1 U8 - 1 U9 + 9 X_8_9
  <= 8
 mtz_9_1:
  + 1 U9 - 1 U1 + 9 X_9_1
  <= 8
 mtz_9_2:
  + 1 U9 - 1 U2 + 9 X_9_2
  <= 8
 mtz_9_3:
  + 1 U9 - 1 U3 + 9 X_9_3
  <= 8
 mtz_9_4:
  + 1 U9 - 1 U4 + 9 X_9_4
  <= 8
 mtz_9_5:
  + 1 U9 - 1 U5 + 9 X_9_5
  <= 8
 mtz_9_6:
  + 1 U9 - 1 U6 + 9 X_9_6
  <= 8
 mtz_9_7:
  + 1 U9 - 1 U7 + 9 X_9_7
  <= 8
 mtz_9_8:
  + 1 U9 - 1 U8 + 9 X_9_8
  <= 8
 obj1:
  + 386 X_0_1 + 307 X_0_2 + 410 X_0_3 + 261 X_0_4 + 245 X_0_5 + 954 X_0_6 + 595 X_0_7 + 521 X_0_8
  + 442 X_0_9 + 386 X_1_0 + 161 X_1_2 + 405 X_1_3 + 548 X_1_4 + 335 X_1_5 + 647 X_1_6 + 575 X_1_7
  + 644 X_1_8 + 557 X_1_9 + 307 X_2_0 + 161 X_2_1 + 489 X_2_3 + 531 X_2_4 + 369 X_2_5 + 808 X_2_6
  + 677 X_2_7 + 700 X_2_8 + 611 X_2_9 + 410 X_3_0 + 405 X_3_1 + 489 X_3_2 + 328 X_3_4 + 164 X_3_5
  + 641 X_3_6 + 194 X_3_7 + 250 X_3_8 + 174 X_3_9 + 261 X_4_0 + 548 X_4_1 + 531 X_4_2 + 328 X_4_3
  + 234 X_4_5 + 965 X_4_6 + 454 X_4_7 + 305 X_4_8 + 251 X_4_9 + 245 X_5_0 + 335 X_5_1 + 369 X_5_2
  + 164 X_5_3 + 234 X_5_4 + 751 X_5_6 + 354 X_5_7 + 331 X_5_8 + 242 X_5_9 + 954 X_6_0 + 647 X_6_1
  + 808 X_6_2 + 641 X_6_3 + 965 X_6_4 + 751 X_6_5 + 613 X_6_7 + 824 X_6_8 + 786 X_6_9 + 595 X_7_0
  + 575 X_7_1 + 677 X_7_2 + 194 X_7_3 + 454 X_7_4 + 354 X_7_5 + 613 X_7_6 + 217 X_7_8 + 210 X_7_9
  + 521 X_8_0 + 644 X_8_1 + 700 X_8_2 + 250 X_8_3 + 305 X_8_4 + 331 X_8_5 + 824 X_8_6 + 217 X_8_7
  + 89 X_8_9 + 442 X_9_0 + 557 X_9_1 + 611 X_9_2 + 174 X_9_3 + 251 X_9_4 + 242 X_9_5 + 786 X_9_6
  + 210 X_9_7 + 89 X_9_8
  <= 1
 obj2:
  + 868 X_0_1 + 641 X_0_2 + 604 X_0_3 + 930 X_0_4 + 462 X_0_5 + 766 X_0_6 + 349 X_0_7 + 309 X_0_8
  + 360 X_0_9 + 868 X_1_0 + 410 X_1_2 + 501 X_1_3 + 92 X_1_4 + 437 X_1_5 + 285 X_1_6 + 535 X_1_7
  + 728 X_1_8 + 647 X_1_9 + 641 X_2_0 + 410 X_2_1 + 629 X_2_3 + 413 X_2_4 + 209 X_2_5 + 553 X_2_6
  + 310 X_2_7 + 391 X_2_8 + 309 X_2_9 + 604 X_3_0 + 501 X_3_1 + 629 X_3_2 + 593 X_3_4 + 462 X_3_5
  + 243 X_3_6 + 452 X_3_7 + 667 X_3_8 + 625 X_3_9 + 930 X_4_0 + 92 X_4_1 + 413 X_4_2 + 593 X_4_3
  + 482 X_4_5 + 376 X_4_6 + 588 X_4_7 + 763 X_4_8 + 681 X_4_9 + 462 X_5_0 + 437 X_5_1 + 209 X_5_2
  + 462 X_5_3 + 482 X_5_4 + 459 X_5_6 + 114 X_5_7 + 293 X_5_8 + 217 X_5_9 + 766 X_6_0 + 285 X_6_1
  + 553 X_6_2 + 243 X_6_3 + 376 X_6_4 + 459 X_6_5 + 507 X_6_7 + 733 X_6_8 + 669 X_6_9 + 349 X_7_0
  + 535 X_7_1 + 310 X_7_2 + 452 X_7_3 + 588 X_7_4 + 114 X_7_5 + 507 X_7_6 + 226 X_7_8 + 174 X_7_9
  + 309 X_8_0 + 728 X_8_1 + 391 X_8_2 + 667 X_8_3 + 763 X_8_4 + 293 X_8_5 + 733 X_8_6 + 226 X_8_7
  + 83 X_8_9 + 360 X_9_0 + 647 X_9_1 + 309 X_9_2 + 625 X_9_3 + 681 X_9_4 + 217 X_9_5 + 669 X_9_6
  + 174 X_9_7 + 83 X_9_8
  <= 2
 obj3:
  + 487 X_0_1 + 826 X_0_2 + 704 X_0_3 + 596 X_0_4 + 158 X_0_5 + 984 X_0_6 + 66 X_0_7 + 1091 X_0_8
  + 775 X_0_9 + 487 X_1_0 + 611 X_1_2 + 628 X_1_3 + 448 X_1_4 + 415 X_1_5 + 627 X_1_6 + 457 X_1_7
  + 615 X_1_8 + 352 X_1_9 + 826 X_2_0 + 611 X_2_1 + 214 X_2_3 + 229 X_2_4 + 669 X_2_5 + 287 X_2_6
  + 848 X_2_7 + 672 X_2_8 + 877 X_2_9 + 704 X_3_0 + 628 X_3_1 + 214 X_3_2 + 180 X_3_4 + 546 X_3_5
  + 496 X_3_6 + 740 X_3_7 + 850 X_3_8 + 947 X_3_9 + 596 X_4_0 + 448 X_4_1 + 229 X_4_2 + 180 X_4_3
  + 439 X_4_5 + 440 X_4_6 + 620 X_4_7 + 724 X_4_8 + 768 X_4_9 + 158 X_5_0 + 415 X_5_1 + 669 X_5_2
  + 546 X_5_3 + 439 X_5_4 + 840 X_5_6 + 195 X_5_7 + 985 X_5_8 + 745 X_5_9 + 984 X_6_0 + 627 X_6_1
  + 287 X_6_2 + 496 X_6_3 + 440 X_6_4 + 840 X_6_5 + 989 X_6_7 + 421 X_6_8 + 781 X_6_9 + 66 X_7_0
  + 457 X_7_1 + 848 X_7_2 + 740 X_7_3 + 620 X_7_4 + 195 X_7_5 + 989 X_7_6 + 1069 X_7_8 + 725 X_7_9
  + 1091 X_8_0 + 615 X_8_1 + 672 X_8_2 + 850 X_8_3 + 724 X_8_4 + 985 X_8_5 + 421 X_8_6 + 1069 X_8_7
  + 550 X_8_9 + 775 X_9_0 + 352 X_9_1 + 877 X_9_2 + 947 X_9_3 + 768 X_9_4 + 745 X_9_5 + 781 X_9_6
  + 725 X_9_7 + 550 X_9_8
  <= 3
 obj4:
  + 652 X_0_1 + 960 X_0_2 + 108 X_0_3 + 254 X_0_4 + 1019 X_0_5 + 681 X_0_6 + 400 X_0_7 + 690 X_0_8
  + 544 X_0_9 + 652 X_1_0 + 563 X_1_2 + 561 X_1_3 + 613 X_1_4 + 670 X_1_5 + 781 X_1_6 + 256 X_1_7
  + 930 X_1_8 + 248 X_1_9 + 960 X_2_0 + 563 X_2_1 + 852 X_2_3 + 767 X_2_4 + 113 X_2_5 + 584 X_2_6
  + 644 X_2_7 + 774 X_2_8 + 799 X_2_9 + 108 X_3_0 + 561 X_3_1 + 852 X_3_2 + 184 X_3_4 + 912 X_3_5
  + 605 X_3_6 + 305 X_3_7 + 639 X_3_8 + 484 X_3_9 + 254 X_4_0 + 613 X_4_1 + 767 X_4_2 + 184 X_4_3
  + 807 X_4_5 + 427 X_4_6 + 372 X_4_7 + 455 X_4_8 + 606 X_4_9 + 1019 X_5_0 + 670 X_5_1 + 113 X_5_2
  + 912 X_5_3 + 807 X_5_4 + 562 X_5_6 + 730 X_5_7 + 749 X_5_8 + 901 X_5_9 + 681 X_6_0 + 781 X_6_1
  + 584 X_6_2 + 605 X_6_3 + 427 X_6_4 + 562 X_6_5 + 640 X_6_7 + 190 X_6_8 + 896 X_6_9 + 400 X_7_0
  + 256 X_7_1 + 644 X_7_2 + 305 X_7_3 + 372 X_7_4 + 730 X_7_5 + 640 X_7_6 + 752 X_7_8 + 258 X_7_9
  + 690 X_8_0 + 930 X_8_1 + 774 X_8_2 + 639 X_8_3 + 455 X_8_4 + 749 X_8_5 + 190 X_8_6 + 752 X_8_7
  + 1010 X_8_9 + 544 X_9_0 + 248 X_9_1 + 799 X_9_2 + 484 X_9_3 + 606 X_9_4 + 901 X_9_5 + 896 X_9_6
  + 258 X_9_7 + 1010 X_9_8
  <= 4
 obj5:
  + 282 X_0_1 + 458 X_0_2 + 236 X_0_3 + 471 X_0_4 + 293 X_0_5 + 619 X_0_6 + 74 X_0_7 + 536 X_0_8
  + 357 X_0_9 + 282 X_1_0 + 234 X_1_2 + 518 X_1_3 + 525 X_1_4 + 423 X_1_5 + 579 X_1_6 + 343 X_1_7
  + 781 X_1_8 + 211 X_1_9 + 458 X_2_0 + 234 X_2_1 + 681 X_2_3 + 462 X_2_4 + 655 X_2_5 + 429 X_2_6
  + 531 X_2_7 + 857 X_2_8 + 423 X_2_9 + 236 X_3_0 + 518 X_3_1 + 681 X_3_2 + 551 X_3_4 + 358 X_3_5
  + 741 X_3_6 + 182 X_3_7 + 376 X_3_8 + 563 X_3_9 + 471 X_4_0 + 525 X_4_1 + 462 X_4_2 + 551 X_4_3
  + 765 X_4_5 + 208 X_4_6 + 526 X_4_7 + 501 X_4_8 + 722 X_4_9 + 293 X_5_0 + 423 X_5_1 + 655 X_5_2
  + 358 X_5_3 + 765 X_5_4 + 904 X_5_6 + 248 X_5_7 + 734 X_5_8 + 322 X_5_9 + 619 X_6_0 + 579 X_6_1
  + 429 X_6_2 + 741 X_6_3 + 208 X_6_4 + 904 X_6_5 + 684 X_6_7 + 705 X_6_8 + 790 X_6_9 + 74 X_7_0
  + 343 X_7_1 + 531 X_7_2 + 182 X_7_3 + 526 X_7_4 + 248 X_7_5 + 684 X_7_6 + 521 X_7_8 + 383 X_7_9
  + 536 X_8_0 + 781 X_8_1 + 857 X_8_2 + 376 X_8_3 + 501 X_8_4 + 734 X_8_5 + 705 X_8_6 + 521 X_8_7
  + 893 X_8_9 + 357 X_9_0 + 211 X_9_1 + 423 X_9_2 + 563 X_9_3 + 722 X_9_4 + 322 X_9_5 + 790 X_9_6
  + 383 X_9_7 + 893 X_9_8
  <= 5
 obj6:
  + 129 X_0_1 + 650 X_0_2 + 371 X_0_3 + 533 X_0_4 + 732 X_0_5 + 401 X_0_6 + 593 X_0_7 + 518 X_0_8
  + 280 X_0_9 + 129 X_1_0 + 521 X_1_2 + 316 X_1_3 + 535 X_1_4 + 656 X_1_5 + 326 X_1_6 + 485 X_1_7
  + 592 X_1_8 + 393 X_1_9 + 650 X_2_0 + 521 X_2_1 + 543 X_2_3 + 790 X_2_4 + 575 X_2_5 + 483 X_2_6
  + 312 X_2_7 + 1004 X_2_8 + 892 X_2_9 + 371 X_3_0 + 316 X_3_1 + 543 X_3_2 + 851 X_3_4 + 904 X_3_5
  + 65 X_3_6 + 672 X_3_7 + 889 X_3_8 + 642 X_3_9 + 533 X_4_0 + 535 X_4_1 + 790 X_4_2 + 851 X_4_3
  + 419 X_4_5 + 852 X_4_6 + 518 X_4_7 + 316 X_4_8 + 465 X_4_9 + 732 X_5_0 + 656 X_5_1 + 575 X_5_2
  + 904 X_5_3 + 419 X_5_4 + 874 X_5_6 + 269 X_5_7 + 732 X_5_8 + 807 X_5_9 + 401 X_6_0 + 326 X_6_1
  + 483 X_6_2 + 65 X_6_3 + 852 X_6_4 + 874 X_6_5 + 633 X_6_7 + 913 X_6_8 + 678 X_6_9 + 593 X_7_0
  + 485 X_7_1 + 312 X_7_2 + 672 X_7_3 + 518 X_7_4 + 269 X_7_5 + 633 X_7_6 + 783 X_7_8 + 756 X_7_9
  + 518 X_8_0 + 592 X_8_1 + 1004 X_8_2 + 889 X_8_3 + 316 X_8_4 + 732 X_8_5 + 913 X_8_6 + 783 X_8_7
  + 292 X_8_9 + 280 X_9_0 + 393 X_9_1 + 892 X_9_2 + 642 X_9_3 + 465 X_9_4 + 807 X_9_5 + 678 X_9_6
  + 756 X_9_7 + 292 X_9_8
  <= 6
 obj7:
  + 530 X_0_1 + 980 X_0_2 + 42 X_0_3 + 756 X_0_4 + 765 X_0_5 + 640 X_0_6 + 447 X_0_7 + 559 X_0_8
  + 297 X_0_9 + 530 X_1_0 + 649 X_1_2 + 506 X_1_3 + 709 X_1_4 + 548 X_1_5 + 831 X_1_6 + 390 X_1_7
  + 298 X_1_8 + 250 X_1_9 + 980 X_2_0 + 649 X_2_1 + 939 X_2_3 + 449 X_2_4 + 244 X_2_5 + 774 X_2_6
  + 540 X_2_7 + 428 X_2_8 + 720 X_2_9 + 42 X_3_0 + 506 X_3_1 + 939 X_3_2 + 715 X_3_4 + 724 X_3_5
  + 607 X_3_6 + 405 X_3_7 + 520 X_3_8 + 266 X_3_9 + 756 X_4_0 + 709 X_4_1 + 449 X_4_2 + 715 X_4_3
  + 242 X_4_5 + 333 X_4_6 + 358 X_4_7 + 413 X_4_8 + 613 X_4_9 + 765 X_5_0 + 548 X_5_1 + 244 X_5_2
  + 724 X_5_3 + 242 X_5_4 + 542 X_5_6 + 318 X_5_7 + 261 X_5_8 + 539 X_5_9 + 640 X_6_0 + 831 X_6_1
  + 774 X_6_2 + 607 X_6_3 + 333 X_6_4 + 542 X_6_5 + 443 X_6_7 + 588 X_6_8 + 641 X_6_9 + 447 X_7_0
  + 390 X_7_1 + 540 X_7_2 + 405 X_7_3 + 358 X_7_4 + 318 X_7_5 + 443 X_7_6 + 168 X_7_8 + 255 X_7_9
  + 559 X_8_0 + 298 X_8_1 + 428 X_8_2 + 520 X_8_3 + 413 X_8_4 + 261 X_8_5 + 588 X_8_6 + 168 X_8_7
  + 292 X_8_9 + 297 X_9_0 + 250 X_9_1 + 720 X_9_2 + 266 X_9_3 + 613 X_9_4 + 539 X_9_5 + 641 X_9_6
  + 255 X_9_7 + 292 X_9_8
  <= 7
Bounds
 1 <= U1 <= 9
 1 <= U2 <= 9
 1 <= U3 <= 9
 1 <= U4 <= 9
 1 <= U5 <= 9
 1 <= U6 <= 9
 1 <= U7 <= 9
 1 <= U8 <= 9
 1 <= U9 <= 9
Binary
 X_0_1
 X_0_2
 X_0_3
 X_0_4
 X_0_5
 X_0_6
 X_0_7
 X_0_8
 X_0_9
 X_1_0
 X_1_2
 X_1_3
 X_1_4
 X_1_5
 X_1_6
 X_1_7
 X_1_8
 X_1_9
 X_2_0
 X_2_1
 X_2_3
 X_2_4
 X_2_5
 X_2_6
 X_2_7
 X_2_8
 X_2_9
 X_3_0
 X_3_1
 X_3_2
 X_3_4
 X_3_5
 X_3_6
 X_3_7
 X_3_8
 X_3_9
 X_4_0
 X_4_1
 X_4_2
 X_4_3
 X_4_5
 X_4_6
 X_4_7
 X_4_8
 X_4_9
 X_5_0
 X_5_1
 X_5_2
 X_5_3
 X_5_4
 X_5_6
 X_5_7
 X_5_8
 X_5_9
 X_6_0
 X_6_1
 X_6_2
 X_6_3
 X_6_4
 X_6_5
 X_6_7
 X_6_8
 X_6_9
 X_7_0
 X_7_1
 X_7_2
 X_7_3
 X_7_4
 X_7_5
 X_7_6
 X_7_8
 X_7_9
 X_8_0
 X_8_1
 X_8_2
 X_8_3
 X_8_4
 X_8_5
 X_8_6
 X_8_7
 X_8_9
 X_9_0
 X_9_1
 X_9_2
 X_9_3
 X_9_4
 X_9_5
 X_9_6
 X_9_7
 X_9_8
End
